p cnf 11 18
a 3 6 7 10 0
e 1 5 8 11 2 4 9 0
-1 2 0
-3 2 0
1 3 -2 0
-4 5 6 0
-4 5 2 0
-4 6 2 0
4 -5 -6 0
4 -5 -2 0
4 -6 -2 0
7 8 -9 0
8 4 -9 0
7 4 -9 0
9 -8 -7 0
9 -8 -4 0
9 -7 -4 0
-10 9 0
-11 -10 0
9 -11 0 
